qe/outputs/qe/cbrdelay_l0_discretize/T=5,eliminate=[I_0,I_1,I_2,I_3,I_4,L_2,L_3,L_4,lhs=L_1],pl=1.smt2
; benchmark generated from python API
(set-info :status unknown)
(declare-fun S_2 () Real)
(declare-fun S_0 () Real)
(declare-fun C () Real)
(declare-fun S_3 () Real)
(declare-fun S_1 () Real)
(declare-fun A_0 () Real)
(declare-fun L_0 () Real)
(declare-fun S_4 () Real)
(declare-fun L0 () Real)
(declare-fun B () Real)
(declare-fun A_4 () Real)
(declare-fun A_2 () Real)
(declare-fun L_1 () Real)
(declare-fun A_3 () Real)
(declare-fun A_1 () Real)
(assert
 (let (($x37 (>= L0 0.0)))
 (let (($x604 (>= C 5.0)))
 (let ((?x244 (* (- 1.0) S_2)))
 (let ((?x549 (* (- 1.0) B)))
 (let ((?x505 (* (- 1.0) A_4)))
 (let ((?x236 (* (- 1.0) C)))
 (let (($x7019 (<= (+ (* (- 2.0) C) A_2 ?x505 ?x549 (* (- 1.0) S_1) S_4) 0.0)))
 (let (($x6996 (<= (+ L_0 (* (- 2.0) C) A_2 ?x505 ?x549 S_4 (* (- 1.0) A_0)) 0.0)))
 (let (($x7008 (<= (+ (* (- 3.0) C) A_2 ?x505 ?x549 (* (- 1.0) S_0) S_4) 0.0)))
 (let (($x857 (>= S_4 (+ A_3 (* (- 1.0) L_1)))))
 (let (($x1164 (not (= L_0 L_1))))
 (let (($x6585 (or $x1164 (>= S_4 (+ A_3 (* (- 1.0) L_0))) (<= (+ (* 2.0 C) S_1 (* (- 1.0) S_4)) 0.0))))
 (let (($x6537 (<= (+ (* 3.0 C) S_0 (* (- 1.0) S_4)) 0.0)))
 (let (($x54 (= L_1 L_0)))
 (let (($x6689 (or $x54 (<= S_4 (+ A_4 (* (- 1.0) A_2) A_1 (* (- 1.0) L_1) C)))))
 (let ((?x1105 (* 2.0 C)))
 (let ((?x494 (* (- 1.0) L_1)))
 (let ((?x478 (+ A_1 ?x494 ?x549 ?x1105)))
 (let (($x6387 (>= S_4 ?x478)))
 (let (($x120 (>= S_4 S_3)))
 (let (($x36 (>= L_0 L0)))
 (let (($x111 (>= S_1 S_0)))
 (let (($x114 (>= S_2 S_1)))
 (let (($x117 (>= S_3 S_2)))
 (let (($x123 (>= A_2 A_1)))
 (let (($x124 (>= A_3 A_2)))
 (let (($x125 (>= A_4 A_3)))
 (and (<= (+ A_0 (* (- 1.0) L_0)) S_3) (not (<= (+ A_1 ?x494) S_3)) $x125 $x124 $x123 $x117 $x114 $x111 $x36 $x120 (or $x54 (<= S_1 (+ A_1 ?x494 ?x549))) (or $x1164 (>= S_3 (+ A_1 (* (- 1.0) L_0) ?x549 C))) (or $x54 (not (<= L_1 L_0))) (>= S_3 (+ A_1 ?x494 ?x549 C)) (or $x54 (<= S_2 (+ A_1 ?x494 ?x549 C))) (>= S_2 (+ A_1 ?x494 ?x549)) (>= S_1 (+ ?x549 ?x494 A_1 ?x236)) (<= S_4 (+ A_3 ?x494 C)) (or $x54 (<= S_4 (+ A_1 ?x494 ?x549 (* 3.0 C)))) (<= (+ ?x549 ?x494 A_1 ?x236) (+ A_0 (* (- 1.0) L_0))) (or (<= (+ A_2 (* (- 1.0) A_1) ?x236) 0.0) $x6387) (>= S_0 (+ ?x549 ?x494 A_1 (* (- 2.0) C))) (or $x54 (<= S_0 (+ ?x549 ?x494 A_1 ?x236))) (or $x54 (<= S_3 ?x478)) $x6689 (<= (+ (* (- 3.0) C) S_4 ?x244) 0.0) (<= (+ (* (- 4.0) C) (* (- 1.0) S_1) S_4) 0.0) (<= (+ L_0 (* (- 4.0) C) S_4 (* (- 1.0) A_0)) 0.0) (or (<= (+ A_3 (* (- 1.0) A_2) ?x236) 0.0) $x6537) (or $x857 $x6387) $x6585 (<= S_4 (+ A_4 ?x494)) (or $x857 $x6537) (or $x857 (<= (+ C (* (- 1.0) S_4) S_2) 0.0)) (<= (+ A_2 ?x505 ?x549 S_4 (* (- 1.0) S_3)) 0.0) $x7008 $x6996 $x7019 (<= (+ ?x236 A_2 ?x505 ?x549 S_4 ?x244) 0.0) $x604 $x37 (<= (+ L_0 S_0 (* (- 1.0) A_0)) 0.0) (<= (+ (* (- 2.0) C) S_4 (* (- 1.0) S_3)) 0.0) (<= (+ (* (- 5.0) C) (* (- 1.0) S_0) S_4) 0.0) (<= (+ L_0 ?x236 S_1 (* (- 1.0) A_0)) 0.0) (<= (+ (* (- 2.0) C) S_1 (* (- 1.0) S_0)) 0.0) (<= (+ C S_1 (* (- 1.0) S_3)) 0.0) (<= (+ (* (- 3.0) C) (* (- 1.0) S_0) S_2) 0.0) (<= (+ (* (- 4.0) C) (* (- 1.0) S_0) S_3) 0.0) (<= (+ L_0 (* (- 2.0) C) (* (- 1.0) A_0) S_2) 0.0) (<= (+ L_0 (* (- 3.0) C) (* (- 1.0) A_0) S_3) 0.0) (<= (+ (* (- 2.0) C) (* (- 1.0) S_1) S_2) 0.0) (<= (+ (* (- 3.0) C) (* (- 1.0) S_1) S_3) 0.0) (<= (+ ?x1105 S_0 (* (- 1.0) S_3)) 0.0) (<= (+ (* (- 2.0) C) S_3 ?x244) 0.0) (<= (+ C S_0 ?x244) 0.0))))))))))))))))))))))))))))))
(check-sat)
