qe/outputs/qe/cbrdelay_l0_discretize/T=5,eliminate=[I_0,I_1,I_2,I_3,I_4,L_2,L_3,L_4,lhs=L_1],pl=1.smt2.z3
[And(A_0 + -1*L_0 <= S_3,
     Not(A_1 + -1*L_1 <= S_3),
     A_4 >= A_3,
     A_3 >= A_2,
     A_2 >= A_1,
     S_3 >= S_2,
     S_2 >= S_1,
     S_1 >= S_0,
     L_0 >= L0,
     S_4 >= S_3,
     Or(L_1 == L_0, S_1 <= A_1 + -1*L_1 + -1*B),
     Or(Not(L_0 == L_1), S_3 >= A_1 + -1*L_0 + -1*B + C),
     Or(L_1 == L_0, Not(L_1 <= L_0)),
     S_3 >= A_1 + -1*L_1 + -1*B + C,
     Or(L_1 == L_0, S_2 <= A_1 + -1*L_1 + -1*B + C),
     S_2 >= A_1 + -1*L_1 + -1*B,
     S_1 >= -1*B + -1*L_1 + A_1 + -1*C,
     S_4 <= A_3 + -1*L_1 + C,
     Or(L_1 == L_0, S_4 <= A_1 + -1*L_1 + -1*B + 3*C),
     -1*B + -1*L_1 + A_1 + -1*C <= A_0 + -1*L_0,
     Or(A_2 + -1*A_1 + -1*C <= 0,
        S_4 >= A_1 + -1*L_1 + -1*B + 2*C),
     S_0 >= -1*B + -1*L_1 + A_1 + -2*C,
     Or(L_1 == L_0, S_0 <= -1*B + -1*L_1 + A_1 + -1*C),
     Or(L_1 == L_0, S_3 <= A_1 + -1*L_1 + -1*B + 2*C),
     Or(L_1 == L_0, S_4 <= A_4 + -1*A_2 + A_1 + -1*L_1 + C),
     -3*C + S_4 + -1*S_2 <= 0,
     -4*C + -1*S_1 + S_4 <= 0,
     L_0 + -4*C + S_4 + -1*A_0 <= 0,
     Or(A_3 + -1*A_2 + -1*C <= 0, 3*C + S_0 + -1*S_4 <= 0),
     Or(S_4 >= A_3 + -1*L_1,
        S_4 >= A_1 + -1*L_1 + -1*B + 2*C),
     Or(Not(L_0 == L_1),
        S_4 >= A_3 + -1*L_0,
        2*C + S_1 + -1*S_4 <= 0),
     S_4 <= A_4 + -1*L_1,
     Or(S_4 >= A_3 + -1*L_1, 3*C + S_0 + -1*S_4 <= 0),
     Or(S_4 >= A_3 + -1*L_1, C + -1*S_4 + S_2 <= 0),
     A_2 + -1*A_4 + -1*B + S_4 + -1*S_3 <= 0,
     -3*C + A_2 + -1*A_4 + -1*B + -1*S_0 + S_4 <= 0,
     L_0 + -2*C + A_2 + -1*A_4 + -1*B + S_4 + -1*A_0 <= 0,
     -2*C + A_2 + -1*A_4 + -1*B + -1*S_1 + S_4 <= 0,
     -1*C + A_2 + -1*A_4 + -1*B + S_4 + -1*S_2 <= 0,
     C >= 5,
     L0 >= 0,
     L_0 + S_0 + -1*A_0 <= 0,
     -2*C + S_4 + -1*S_3 <= 0,
     -5*C + -1*S_0 + S_4 <= 0,
     L_0 + -1*C + S_1 + -1*A_0 <= 0,
     -2*C + S_1 + -1*S_0 <= 0,
     C + S_1 + -1*S_3 <= 0,
     -3*C + -1*S_0 + S_2 <= 0,
     -4*C + -1*S_0 + S_3 <= 0,
     L_0 + -2*C + -1*A_0 + S_2 <= 0,
     L_0 + -3*C + -1*A_0 + S_3 <= 0,
     -2*C + -1*S_1 + S_2 <= 0,
     -3*C + -1*S_1 + S_3 <= 0,
     2*C + S_0 + -1*S_3 <= 0,
     -2*C + S_3 + -1*S_2 <= 0,
     C + S_0 + -1*S_2 <= 0)]